(set-logic QF_LRA)
(declare-fun X0 () Real )
(declare-fun Y0 () Real )
(declare-fun X1 () Real )
(declare-fun Y1 () Real )
(declare-fun X2 () Real )
(declare-fun Y2 () Real )
(declare-fun X3 () Real )
(declare-fun Y3 () Real )
(declare-fun X4 () Real )
(declare-fun Y4 () Real )
(declare-fun X5 () Real )
(declare-fun Y5 () Real )
(declare-fun X6 () Real )
(declare-fun Y6 () Real )
(declare-fun X7 () Real )
(declare-fun Y7 () Real )
(declare-fun X8 () Real )
(declare-fun Y8 () Real )
(declare-fun X9 () Real )
(declare-fun Y9 () Real )
(declare-fun X10 () Real )
(declare-fun Y10 () Real )
(declare-fun X11 () Real )
(declare-fun Y11 () Real )
(declare-fun X12 () Real )
(declare-fun Y12 () Real )
(declare-fun X13 () Real )
(declare-fun Y13 () Real )
(declare-fun X14 () Real )
(declare-fun Y14 () Real )
(declare-fun X15 () Real )
(declare-fun Y15 () Real )
(declare-fun X16 () Real )
(declare-fun Y16 () Real )
(declare-fun X17 () Real )
(declare-fun Y17 () Real )
(declare-fun Z () Real )
(assert ( and  
( or ( <= ( + X0 69 ) X1 )  ( <= ( + X1 46 ) X0 )  ( <= ( + Y0 28 ) Y1 )  ( <= ( + Y1 16 ) Y0 )  )
( or ( <= ( + X0 69 ) X2 )  ( <= ( + X2 72 ) X0 )  ( <= ( + Y0 28 ) Y2 )  ( <= ( + Y2 10 ) Y0 )  )
( or ( <= ( + X0 69 ) X3 )  ( <= ( + X3 89 ) X0 )  ( <= ( + Y0 28 ) Y3 )  ( <= ( + Y3 29 ) Y0 )  )
( or ( <= ( + X0 69 ) X4 )  ( <= ( + X4 34 ) X0 )  ( <= ( + Y0 28 ) Y4 )  ( <= ( + Y4 14 ) Y0 )  )
( or ( <= ( + X0 69 ) X5 )  ( <= ( + X5 78 ) X0 )  ( <= ( + Y0 28 ) Y5 )  ( <= ( + Y5 99 ) Y0 )  )
( or ( <= ( + X0 69 ) X6 )  ( <= ( + X6 95 ) X0 )  ( <= ( + Y0 28 ) Y6 )  ( <= ( + Y6 1 ) Y0 )  )
( or ( <= ( + X0 69 ) X7 )  ( <= ( + X7 23 ) X0 )  ( <= ( + Y0 28 ) Y7 )  ( <= ( + Y7 3 ) Y0 )  )
( or ( <= ( + X0 69 ) X8 )  ( <= ( + X8 67 ) X0 )  ( <= ( + Y0 28 ) Y8 )  ( <= ( + Y8 30 ) Y0 )  )
( or ( <= ( + X0 69 ) X9 )  ( <= ( + X9 80 ) X0 )  ( <= ( + Y0 28 ) Y9 )  ( <= ( + Y9 57 ) Y0 )  )
( or ( <= ( + X0 69 ) X10 )  ( <= ( + X10 92 ) X0 )  ( <= ( + Y0 28 ) Y10 )  ( <= ( + Y10 56 ) Y0 )  )
( or ( <= ( + X0 69 ) X11 )  ( <= ( + X11 17 ) X0 )  ( <= ( + Y0 28 ) Y11 )  ( <= ( + Y11 78 ) Y0 )  )
( or ( <= ( + X0 69 ) X12 )  ( <= ( + X12 5 ) X0 )  ( <= ( + Y0 28 ) Y12 )  ( <= ( + Y12 69 ) Y0 )  )
( or ( <= ( + X0 69 ) X13 )  ( <= ( + X13 39 ) X0 )  ( <= ( + Y0 28 ) Y13 )  ( <= ( + Y13 24 ) Y0 )  )
( or ( <= ( + X0 69 ) X14 )  ( <= ( + X14 84 ) X0 )  ( <= ( + Y0 28 ) Y14 )  ( <= ( + Y14 75 ) Y0 )  )
( or ( <= ( + X0 69 ) X15 )  ( <= ( + X15 99 ) X0 )  ( <= ( + Y0 28 ) Y15 )  ( <= ( + Y15 40 ) Y0 )  )
( or ( <= ( + X0 69 ) X16 )  ( <= ( + X16 66 ) X0 )  ( <= ( + Y0 28 ) Y16 )  ( <= ( + Y16 64 ) Y0 )  )
( or ( <= ( + X0 69 ) X17 )  ( <= ( + X17 59 ) X0 )  ( <= ( + Y0 28 ) Y17 )  ( <= ( + Y17 8 ) Y0 )  )
( or ( <= ( + X1 46 ) X2 )  ( <= ( + X2 72 ) X1 )  ( <= ( + Y1 16 ) Y2 )  ( <= ( + Y2 10 ) Y1 )  )
( or ( <= ( + X1 46 ) X3 )  ( <= ( + X3 89 ) X1 )  ( <= ( + Y1 16 ) Y3 )  ( <= ( + Y3 29 ) Y1 )  )
( or ( <= ( + X1 46 ) X4 )  ( <= ( + X4 34 ) X1 )  ( <= ( + Y1 16 ) Y4 )  ( <= ( + Y4 14 ) Y1 )  )
( or ( <= ( + X1 46 ) X5 )  ( <= ( + X5 78 ) X1 )  ( <= ( + Y1 16 ) Y5 )  ( <= ( + Y5 99 ) Y1 )  )
( or ( <= ( + X1 46 ) X6 )  ( <= ( + X6 95 ) X1 )  ( <= ( + Y1 16 ) Y6 )  ( <= ( + Y6 1 ) Y1 )  )
( or ( <= ( + X1 46 ) X7 )  ( <= ( + X7 23 ) X1 )  ( <= ( + Y1 16 ) Y7 )  ( <= ( + Y7 3 ) Y1 )  )
( or ( <= ( + X1 46 ) X8 )  ( <= ( + X8 67 ) X1 )  ( <= ( + Y1 16 ) Y8 )  ( <= ( + Y8 30 ) Y1 )  )
( or ( <= ( + X1 46 ) X9 )  ( <= ( + X9 80 ) X1 )  ( <= ( + Y1 16 ) Y9 )  ( <= ( + Y9 57 ) Y1 )  )
( or ( <= ( + X1 46 ) X10 )  ( <= ( + X10 92 ) X1 )  ( <= ( + Y1 16 ) Y10 )  ( <= ( + Y10 56 ) Y1 )  )
( or ( <= ( + X1 46 ) X11 )  ( <= ( + X11 17 ) X1 )  ( <= ( + Y1 16 ) Y11 )  ( <= ( + Y11 78 ) Y1 )  )
( or ( <= ( + X1 46 ) X12 )  ( <= ( + X12 5 ) X1 )  ( <= ( + Y1 16 ) Y12 )  ( <= ( + Y12 69 ) Y1 )  )
( or ( <= ( + X1 46 ) X13 )  ( <= ( + X13 39 ) X1 )  ( <= ( + Y1 16 ) Y13 )  ( <= ( + Y13 24 ) Y1 )  )
( or ( <= ( + X1 46 ) X14 )  ( <= ( + X14 84 ) X1 )  ( <= ( + Y1 16 ) Y14 )  ( <= ( + Y14 75 ) Y1 )  )
( or ( <= ( + X1 46 ) X15 )  ( <= ( + X15 99 ) X1 )  ( <= ( + Y1 16 ) Y15 )  ( <= ( + Y15 40 ) Y1 )  )
( or ( <= ( + X1 46 ) X16 )  ( <= ( + X16 66 ) X1 )  ( <= ( + Y1 16 ) Y16 )  ( <= ( + Y16 64 ) Y1 )  )
( or ( <= ( + X1 46 ) X17 )  ( <= ( + X17 59 ) X1 )  ( <= ( + Y1 16 ) Y17 )  ( <= ( + Y17 8 ) Y1 )  )
( or ( <= ( + X2 72 ) X3 )  ( <= ( + X3 89 ) X2 )  ( <= ( + Y2 10 ) Y3 )  ( <= ( + Y3 29 ) Y2 )  )
( or ( <= ( + X2 72 ) X4 )  ( <= ( + X4 34 ) X2 )  ( <= ( + Y2 10 ) Y4 )  ( <= ( + Y4 14 ) Y2 )  )
( or ( <= ( + X2 72 ) X5 )  ( <= ( + X5 78 ) X2 )  ( <= ( + Y2 10 ) Y5 )  ( <= ( + Y5 99 ) Y2 )  )
( or ( <= ( + X2 72 ) X6 )  ( <= ( + X6 95 ) X2 )  ( <= ( + Y2 10 ) Y6 )  ( <= ( + Y6 1 ) Y2 )  )
( or ( <= ( + X2 72 ) X7 )  ( <= ( + X7 23 ) X2 )  ( <= ( + Y2 10 ) Y7 )  ( <= ( + Y7 3 ) Y2 )  )
( or ( <= ( + X2 72 ) X8 )  ( <= ( + X8 67 ) X2 )  ( <= ( + Y2 10 ) Y8 )  ( <= ( + Y8 30 ) Y2 )  )
( or ( <= ( + X2 72 ) X9 )  ( <= ( + X9 80 ) X2 )  ( <= ( + Y2 10 ) Y9 )  ( <= ( + Y9 57 ) Y2 )  )
( or ( <= ( + X2 72 ) X10 )  ( <= ( + X10 92 ) X2 )  ( <= ( + Y2 10 ) Y10 )  ( <= ( + Y10 56 ) Y2 )  )
( or ( <= ( + X2 72 ) X11 )  ( <= ( + X11 17 ) X2 )  ( <= ( + Y2 10 ) Y11 )  ( <= ( + Y11 78 ) Y2 )  )
( or ( <= ( + X2 72 ) X12 )  ( <= ( + X12 5 ) X2 )  ( <= ( + Y2 10 ) Y12 )  ( <= ( + Y12 69 ) Y2 )  )
( or ( <= ( + X2 72 ) X13 )  ( <= ( + X13 39 ) X2 )  ( <= ( + Y2 10 ) Y13 )  ( <= ( + Y13 24 ) Y2 )  )
( or ( <= ( + X2 72 ) X14 )  ( <= ( + X14 84 ) X2 )  ( <= ( + Y2 10 ) Y14 )  ( <= ( + Y14 75 ) Y2 )  )
( or ( <= ( + X2 72 ) X15 )  ( <= ( + X15 99 ) X2 )  ( <= ( + Y2 10 ) Y15 )  ( <= ( + Y15 40 ) Y2 )  )
( or ( <= ( + X2 72 ) X16 )  ( <= ( + X16 66 ) X2 )  ( <= ( + Y2 10 ) Y16 )  ( <= ( + Y16 64 ) Y2 )  )
( or ( <= ( + X2 72 ) X17 )  ( <= ( + X17 59 ) X2 )  ( <= ( + Y2 10 ) Y17 )  ( <= ( + Y17 8 ) Y2 )  )
( or ( <= ( + X3 89 ) X4 )  ( <= ( + X4 34 ) X3 )  ( <= ( + Y3 29 ) Y4 )  ( <= ( + Y4 14 ) Y3 )  )
( or ( <= ( + X3 89 ) X5 )  ( <= ( + X5 78 ) X3 )  ( <= ( + Y3 29 ) Y5 )  ( <= ( + Y5 99 ) Y3 )  )
( or ( <= ( + X3 89 ) X6 )  ( <= ( + X6 95 ) X3 )  ( <= ( + Y3 29 ) Y6 )  ( <= ( + Y6 1 ) Y3 )  )
( or ( <= ( + X3 89 ) X7 )  ( <= ( + X7 23 ) X3 )  ( <= ( + Y3 29 ) Y7 )  ( <= ( + Y7 3 ) Y3 )  )
( or ( <= ( + X3 89 ) X8 )  ( <= ( + X8 67 ) X3 )  ( <= ( + Y3 29 ) Y8 )  ( <= ( + Y8 30 ) Y3 )  )
( or ( <= ( + X3 89 ) X9 )  ( <= ( + X9 80 ) X3 )  ( <= ( + Y3 29 ) Y9 )  ( <= ( + Y9 57 ) Y3 )  )
( or ( <= ( + X3 89 ) X10 )  ( <= ( + X10 92 ) X3 )  ( <= ( + Y3 29 ) Y10 )  ( <= ( + Y10 56 ) Y3 )  )
( or ( <= ( + X3 89 ) X11 )  ( <= ( + X11 17 ) X3 )  ( <= ( + Y3 29 ) Y11 )  ( <= ( + Y11 78 ) Y3 )  )
( or ( <= ( + X3 89 ) X12 )  ( <= ( + X12 5 ) X3 )  ( <= ( + Y3 29 ) Y12 )  ( <= ( + Y12 69 ) Y3 )  )
( or ( <= ( + X3 89 ) X13 )  ( <= ( + X13 39 ) X3 )  ( <= ( + Y3 29 ) Y13 )  ( <= ( + Y13 24 ) Y3 )  )
( or ( <= ( + X3 89 ) X14 )  ( <= ( + X14 84 ) X3 )  ( <= ( + Y3 29 ) Y14 )  ( <= ( + Y14 75 ) Y3 )  )
( or ( <= ( + X3 89 ) X15 )  ( <= ( + X15 99 ) X3 )  ( <= ( + Y3 29 ) Y15 )  ( <= ( + Y15 40 ) Y3 )  )
( or ( <= ( + X3 89 ) X16 )  ( <= ( + X16 66 ) X3 )  ( <= ( + Y3 29 ) Y16 )  ( <= ( + Y16 64 ) Y3 )  )
( or ( <= ( + X3 89 ) X17 )  ( <= ( + X17 59 ) X3 )  ( <= ( + Y3 29 ) Y17 )  ( <= ( + Y17 8 ) Y3 )  )
( or ( <= ( + X4 34 ) X5 )  ( <= ( + X5 78 ) X4 )  ( <= ( + Y4 14 ) Y5 )  ( <= ( + Y5 99 ) Y4 )  )
( or ( <= ( + X4 34 ) X6 )  ( <= ( + X6 95 ) X4 )  ( <= ( + Y4 14 ) Y6 )  ( <= ( + Y6 1 ) Y4 )  )
( or ( <= ( + X4 34 ) X7 )  ( <= ( + X7 23 ) X4 )  ( <= ( + Y4 14 ) Y7 )  ( <= ( + Y7 3 ) Y4 )  )
( or ( <= ( + X4 34 ) X8 )  ( <= ( + X8 67 ) X4 )  ( <= ( + Y4 14 ) Y8 )  ( <= ( + Y8 30 ) Y4 )  )
( or ( <= ( + X4 34 ) X9 )  ( <= ( + X9 80 ) X4 )  ( <= ( + Y4 14 ) Y9 )  ( <= ( + Y9 57 ) Y4 )  )
( or ( <= ( + X4 34 ) X10 )  ( <= ( + X10 92 ) X4 )  ( <= ( + Y4 14 ) Y10 )  ( <= ( + Y10 56 ) Y4 )  )
( or ( <= ( + X4 34 ) X11 )  ( <= ( + X11 17 ) X4 )  ( <= ( + Y4 14 ) Y11 )  ( <= ( + Y11 78 ) Y4 )  )
( or ( <= ( + X4 34 ) X12 )  ( <= ( + X12 5 ) X4 )  ( <= ( + Y4 14 ) Y12 )  ( <= ( + Y12 69 ) Y4 )  )
( or ( <= ( + X4 34 ) X13 )  ( <= ( + X13 39 ) X4 )  ( <= ( + Y4 14 ) Y13 )  ( <= ( + Y13 24 ) Y4 )  )
( or ( <= ( + X4 34 ) X14 )  ( <= ( + X14 84 ) X4 )  ( <= ( + Y4 14 ) Y14 )  ( <= ( + Y14 75 ) Y4 )  )
( or ( <= ( + X4 34 ) X15 )  ( <= ( + X15 99 ) X4 )  ( <= ( + Y4 14 ) Y15 )  ( <= ( + Y15 40 ) Y4 )  )
( or ( <= ( + X4 34 ) X16 )  ( <= ( + X16 66 ) X4 )  ( <= ( + Y4 14 ) Y16 )  ( <= ( + Y16 64 ) Y4 )  )
( or ( <= ( + X4 34 ) X17 )  ( <= ( + X17 59 ) X4 )  ( <= ( + Y4 14 ) Y17 )  ( <= ( + Y17 8 ) Y4 )  )
( or ( <= ( + X5 78 ) X6 )  ( <= ( + X6 95 ) X5 )  ( <= ( + Y5 99 ) Y6 )  ( <= ( + Y6 1 ) Y5 )  )
( or ( <= ( + X5 78 ) X7 )  ( <= ( + X7 23 ) X5 )  ( <= ( + Y5 99 ) Y7 )  ( <= ( + Y7 3 ) Y5 )  )
( or ( <= ( + X5 78 ) X8 )  ( <= ( + X8 67 ) X5 )  ( <= ( + Y5 99 ) Y8 )  ( <= ( + Y8 30 ) Y5 )  )
( or ( <= ( + X5 78 ) X9 )  ( <= ( + X9 80 ) X5 )  ( <= ( + Y5 99 ) Y9 )  ( <= ( + Y9 57 ) Y5 )  )
( or ( <= ( + X5 78 ) X10 )  ( <= ( + X10 92 ) X5 )  ( <= ( + Y5 99 ) Y10 )  ( <= ( + Y10 56 ) Y5 )  )
( or ( <= ( + X5 78 ) X11 )  ( <= ( + X11 17 ) X5 )  ( <= ( + Y5 99 ) Y11 )  ( <= ( + Y11 78 ) Y5 )  )
( or ( <= ( + X5 78 ) X12 )  ( <= ( + X12 5 ) X5 )  ( <= ( + Y5 99 ) Y12 )  ( <= ( + Y12 69 ) Y5 )  )
( or ( <= ( + X5 78 ) X13 )  ( <= ( + X13 39 ) X5 )  ( <= ( + Y5 99 ) Y13 )  ( <= ( + Y13 24 ) Y5 )  )
( or ( <= ( + X5 78 ) X14 )  ( <= ( + X14 84 ) X5 )  ( <= ( + Y5 99 ) Y14 )  ( <= ( + Y14 75 ) Y5 )  )
( or ( <= ( + X5 78 ) X15 )  ( <= ( + X15 99 ) X5 )  ( <= ( + Y5 99 ) Y15 )  ( <= ( + Y15 40 ) Y5 )  )
( or ( <= ( + X5 78 ) X16 )  ( <= ( + X16 66 ) X5 )  ( <= ( + Y5 99 ) Y16 )  ( <= ( + Y16 64 ) Y5 )  )
( or ( <= ( + X5 78 ) X17 )  ( <= ( + X17 59 ) X5 )  ( <= ( + Y5 99 ) Y17 )  ( <= ( + Y17 8 ) Y5 )  )
( or ( <= ( + X6 95 ) X7 )  ( <= ( + X7 23 ) X6 )  ( <= ( + Y6 1 ) Y7 )  ( <= ( + Y7 3 ) Y6 )  )
( or ( <= ( + X6 95 ) X8 )  ( <= ( + X8 67 ) X6 )  ( <= ( + Y6 1 ) Y8 )  ( <= ( + Y8 30 ) Y6 )  )
( or ( <= ( + X6 95 ) X9 )  ( <= ( + X9 80 ) X6 )  ( <= ( + Y6 1 ) Y9 )  ( <= ( + Y9 57 ) Y6 )  )
( or ( <= ( + X6 95 ) X10 )  ( <= ( + X10 92 ) X6 )  ( <= ( + Y6 1 ) Y10 )  ( <= ( + Y10 56 ) Y6 )  )
( or ( <= ( + X6 95 ) X11 )  ( <= ( + X11 17 ) X6 )  ( <= ( + Y6 1 ) Y11 )  ( <= ( + Y11 78 ) Y6 )  )
( or ( <= ( + X6 95 ) X12 )  ( <= ( + X12 5 ) X6 )  ( <= ( + Y6 1 ) Y12 )  ( <= ( + Y12 69 ) Y6 )  )
( or ( <= ( + X6 95 ) X13 )  ( <= ( + X13 39 ) X6 )  ( <= ( + Y6 1 ) Y13 )  ( <= ( + Y13 24 ) Y6 )  )
( or ( <= ( + X6 95 ) X14 )  ( <= ( + X14 84 ) X6 )  ( <= ( + Y6 1 ) Y14 )  ( <= ( + Y14 75 ) Y6 )  )
( or ( <= ( + X6 95 ) X15 )  ( <= ( + X15 99 ) X6 )  ( <= ( + Y6 1 ) Y15 )  ( <= ( + Y15 40 ) Y6 )  )
( or ( <= ( + X6 95 ) X16 )  ( <= ( + X16 66 ) X6 )  ( <= ( + Y6 1 ) Y16 )  ( <= ( + Y16 64 ) Y6 )  )
( or ( <= ( + X6 95 ) X17 )  ( <= ( + X17 59 ) X6 )  ( <= ( + Y6 1 ) Y17 )  ( <= ( + Y17 8 ) Y6 )  )
( or ( <= ( + X7 23 ) X8 )  ( <= ( + X8 67 ) X7 )  ( <= ( + Y7 3 ) Y8 )  ( <= ( + Y8 30 ) Y7 )  )
( or ( <= ( + X7 23 ) X9 )  ( <= ( + X9 80 ) X7 )  ( <= ( + Y7 3 ) Y9 )  ( <= ( + Y9 57 ) Y7 )  )
( or ( <= ( + X7 23 ) X10 )  ( <= ( + X10 92 ) X7 )  ( <= ( + Y7 3 ) Y10 )  ( <= ( + Y10 56 ) Y7 )  )
( or ( <= ( + X7 23 ) X11 )  ( <= ( + X11 17 ) X7 )  ( <= ( + Y7 3 ) Y11 )  ( <= ( + Y11 78 ) Y7 )  )
( or ( <= ( + X7 23 ) X12 )  ( <= ( + X12 5 ) X7 )  ( <= ( + Y7 3 ) Y12 )  ( <= ( + Y12 69 ) Y7 )  )
( or ( <= ( + X7 23 ) X13 )  ( <= ( + X13 39 ) X7 )  ( <= ( + Y7 3 ) Y13 )  ( <= ( + Y13 24 ) Y7 )  )
( or ( <= ( + X7 23 ) X14 )  ( <= ( + X14 84 ) X7 )  ( <= ( + Y7 3 ) Y14 )  ( <= ( + Y14 75 ) Y7 )  )
( or ( <= ( + X7 23 ) X15 )  ( <= ( + X15 99 ) X7 )  ( <= ( + Y7 3 ) Y15 )  ( <= ( + Y15 40 ) Y7 )  )
( or ( <= ( + X7 23 ) X16 )  ( <= ( + X16 66 ) X7 )  ( <= ( + Y7 3 ) Y16 )  ( <= ( + Y16 64 ) Y7 )  )
( or ( <= ( + X7 23 ) X17 )  ( <= ( + X17 59 ) X7 )  ( <= ( + Y7 3 ) Y17 )  ( <= ( + Y17 8 ) Y7 )  )
( or ( <= ( + X8 67 ) X9 )  ( <= ( + X9 80 ) X8 )  ( <= ( + Y8 30 ) Y9 )  ( <= ( + Y9 57 ) Y8 )  )
( or ( <= ( + X8 67 ) X10 )  ( <= ( + X10 92 ) X8 )  ( <= ( + Y8 30 ) Y10 )  ( <= ( + Y10 56 ) Y8 )  )
( or ( <= ( + X8 67 ) X11 )  ( <= ( + X11 17 ) X8 )  ( <= ( + Y8 30 ) Y11 )  ( <= ( + Y11 78 ) Y8 )  )
( or ( <= ( + X8 67 ) X12 )  ( <= ( + X12 5 ) X8 )  ( <= ( + Y8 30 ) Y12 )  ( <= ( + Y12 69 ) Y8 )  )
( or ( <= ( + X8 67 ) X13 )  ( <= ( + X13 39 ) X8 )  ( <= ( + Y8 30 ) Y13 )  ( <= ( + Y13 24 ) Y8 )  )
( or ( <= ( + X8 67 ) X14 )  ( <= ( + X14 84 ) X8 )  ( <= ( + Y8 30 ) Y14 )  ( <= ( + Y14 75 ) Y8 )  )
( or ( <= ( + X8 67 ) X15 )  ( <= ( + X15 99 ) X8 )  ( <= ( + Y8 30 ) Y15 )  ( <= ( + Y15 40 ) Y8 )  )
( or ( <= ( + X8 67 ) X16 )  ( <= ( + X16 66 ) X8 )  ( <= ( + Y8 30 ) Y16 )  ( <= ( + Y16 64 ) Y8 )  )
( or ( <= ( + X8 67 ) X17 )  ( <= ( + X17 59 ) X8 )  ( <= ( + Y8 30 ) Y17 )  ( <= ( + Y17 8 ) Y8 )  )
( or ( <= ( + X9 80 ) X10 )  ( <= ( + X10 92 ) X9 )  ( <= ( + Y9 57 ) Y10 )  ( <= ( + Y10 56 ) Y9 )  )
( or ( <= ( + X9 80 ) X11 )  ( <= ( + X11 17 ) X9 )  ( <= ( + Y9 57 ) Y11 )  ( <= ( + Y11 78 ) Y9 )  )
( or ( <= ( + X9 80 ) X12 )  ( <= ( + X12 5 ) X9 )  ( <= ( + Y9 57 ) Y12 )  ( <= ( + Y12 69 ) Y9 )  )
( or ( <= ( + X9 80 ) X13 )  ( <= ( + X13 39 ) X9 )  ( <= ( + Y9 57 ) Y13 )  ( <= ( + Y13 24 ) Y9 )  )
( or ( <= ( + X9 80 ) X14 )  ( <= ( + X14 84 ) X9 )  ( <= ( + Y9 57 ) Y14 )  ( <= ( + Y14 75 ) Y9 )  )
( or ( <= ( + X9 80 ) X15 )  ( <= ( + X15 99 ) X9 )  ( <= ( + Y9 57 ) Y15 )  ( <= ( + Y15 40 ) Y9 )  )
( or ( <= ( + X9 80 ) X16 )  ( <= ( + X16 66 ) X9 )  ( <= ( + Y9 57 ) Y16 )  ( <= ( + Y16 64 ) Y9 )  )
( or ( <= ( + X9 80 ) X17 )  ( <= ( + X17 59 ) X9 )  ( <= ( + Y9 57 ) Y17 )  ( <= ( + Y17 8 ) Y9 )  )
( or ( <= ( + X10 92 ) X11 )  ( <= ( + X11 17 ) X10 )  ( <= ( + Y10 56 ) Y11 )  ( <= ( + Y11 78 ) Y10 )  )
( or ( <= ( + X10 92 ) X12 )  ( <= ( + X12 5 ) X10 )  ( <= ( + Y10 56 ) Y12 )  ( <= ( + Y12 69 ) Y10 )  )
( or ( <= ( + X10 92 ) X13 )  ( <= ( + X13 39 ) X10 )  ( <= ( + Y10 56 ) Y13 )  ( <= ( + Y13 24 ) Y10 )  )
( or ( <= ( + X10 92 ) X14 )  ( <= ( + X14 84 ) X10 )  ( <= ( + Y10 56 ) Y14 )  ( <= ( + Y14 75 ) Y10 )  )
( or ( <= ( + X10 92 ) X15 )  ( <= ( + X15 99 ) X10 )  ( <= ( + Y10 56 ) Y15 )  ( <= ( + Y15 40 ) Y10 )  )
( or ( <= ( + X10 92 ) X16 )  ( <= ( + X16 66 ) X10 )  ( <= ( + Y10 56 ) Y16 )  ( <= ( + Y16 64 ) Y10 )  )
( or ( <= ( + X10 92 ) X17 )  ( <= ( + X17 59 ) X10 )  ( <= ( + Y10 56 ) Y17 )  ( <= ( + Y17 8 ) Y10 )  )
( or ( <= ( + X11 17 ) X12 )  ( <= ( + X12 5 ) X11 )  ( <= ( + Y11 78 ) Y12 )  ( <= ( + Y12 69 ) Y11 )  )
( or ( <= ( + X11 17 ) X13 )  ( <= ( + X13 39 ) X11 )  ( <= ( + Y11 78 ) Y13 )  ( <= ( + Y13 24 ) Y11 )  )
( or ( <= ( + X11 17 ) X14 )  ( <= ( + X14 84 ) X11 )  ( <= ( + Y11 78 ) Y14 )  ( <= ( + Y14 75 ) Y11 )  )
( or ( <= ( + X11 17 ) X15 )  ( <= ( + X15 99 ) X11 )  ( <= ( + Y11 78 ) Y15 )  ( <= ( + Y15 40 ) Y11 )  )
( or ( <= ( + X11 17 ) X16 )  ( <= ( + X16 66 ) X11 )  ( <= ( + Y11 78 ) Y16 )  ( <= ( + Y16 64 ) Y11 )  )
( or ( <= ( + X11 17 ) X17 )  ( <= ( + X17 59 ) X11 )  ( <= ( + Y11 78 ) Y17 )  ( <= ( + Y17 8 ) Y11 )  )
( or ( <= ( + X12 5 ) X13 )  ( <= ( + X13 39 ) X12 )  ( <= ( + Y12 69 ) Y13 )  ( <= ( + Y13 24 ) Y12 )  )
( or ( <= ( + X12 5 ) X14 )  ( <= ( + X14 84 ) X12 )  ( <= ( + Y12 69 ) Y14 )  ( <= ( + Y14 75 ) Y12 )  )
( or ( <= ( + X12 5 ) X15 )  ( <= ( + X15 99 ) X12 )  ( <= ( + Y12 69 ) Y15 )  ( <= ( + Y15 40 ) Y12 )  )
( or ( <= ( + X12 5 ) X16 )  ( <= ( + X16 66 ) X12 )  ( <= ( + Y12 69 ) Y16 )  ( <= ( + Y16 64 ) Y12 )  )
( or ( <= ( + X12 5 ) X17 )  ( <= ( + X17 59 ) X12 )  ( <= ( + Y12 69 ) Y17 )  ( <= ( + Y17 8 ) Y12 )  )
( or ( <= ( + X13 39 ) X14 )  ( <= ( + X14 84 ) X13 )  ( <= ( + Y13 24 ) Y14 )  ( <= ( + Y14 75 ) Y13 )  )
( or ( <= ( + X13 39 ) X15 )  ( <= ( + X15 99 ) X13 )  ( <= ( + Y13 24 ) Y15 )  ( <= ( + Y15 40 ) Y13 )  )
( or ( <= ( + X13 39 ) X16 )  ( <= ( + X16 66 ) X13 )  ( <= ( + Y13 24 ) Y16 )  ( <= ( + Y16 64 ) Y13 )  )
( or ( <= ( + X13 39 ) X17 )  ( <= ( + X17 59 ) X13 )  ( <= ( + Y13 24 ) Y17 )  ( <= ( + Y17 8 ) Y13 )  )
( or ( <= ( + X14 84 ) X15 )  ( <= ( + X15 99 ) X14 )  ( <= ( + Y14 75 ) Y15 )  ( <= ( + Y15 40 ) Y14 )  )
( or ( <= ( + X14 84 ) X16 )  ( <= ( + X16 66 ) X14 )  ( <= ( + Y14 75 ) Y16 )  ( <= ( + Y16 64 ) Y14 )  )
( or ( <= ( + X14 84 ) X17 )  ( <= ( + X17 59 ) X14 )  ( <= ( + Y14 75 ) Y17 )  ( <= ( + Y17 8 ) Y14 )  )
( or ( <= ( + X15 99 ) X16 )  ( <= ( + X16 66 ) X15 )  ( <= ( + Y15 40 ) Y16 )  ( <= ( + Y16 64 ) Y15 )  )
( or ( <= ( + X15 99 ) X17 )  ( <= ( + X17 59 ) X15 )  ( <= ( + Y15 40 ) Y17 )  ( <= ( + Y17 8 ) Y15 )  )
( or ( <= ( + X16 66 ) X17 )  ( <= ( + X17 59 ) X16 )  ( <= ( + Y16 64 ) Y17 )  ( <= ( + Y17 8 ) Y16 )  )
( >= X0 0)
( <= ( + X0 69) Z)
( >= Y0 0)
( <= ( + Y0 28 ) 212)
( >= X1 0)
( <= ( + X1 46) Z)
( >= Y1 0)
( <= ( + Y1 16 ) 212)
( >= X2 0)
( <= ( + X2 72) Z)
( >= Y2 0)
( <= ( + Y2 10 ) 212)
( >= X3 0)
( <= ( + X3 89) Z)
( >= Y3 0)
( <= ( + Y3 29 ) 212)
( >= X4 0)
( <= ( + X4 34) Z)
( >= Y4 0)
( <= ( + Y4 14 ) 212)
( >= X5 0)
( <= ( + X5 78) Z)
( >= Y5 0)
( <= ( + Y5 99 ) 212)
( >= X6 0)
( <= ( + X6 95) Z)
( >= Y6 0)
( <= ( + Y6 1 ) 212)
( >= X7 0)
( <= ( + X7 23) Z)
( >= Y7 0)
( <= ( + Y7 3 ) 212)
( >= X8 0)
( <= ( + X8 67) Z)
( >= Y8 0)
( <= ( + Y8 30 ) 212)
( >= X9 0)
( <= ( + X9 80) Z)
( >= Y9 0)
( <= ( + Y9 57 ) 212)
( >= X10 0)
( <= ( + X10 92) Z)
( >= Y10 0)
( <= ( + Y10 56 ) 212)
( >= X11 0)
( <= ( + X11 17) Z)
( >= Y11 0)
( <= ( + Y11 78 ) 212)
( >= X12 0)
( <= ( + X12 5) Z)
( >= Y12 0)
( <= ( + Y12 69 ) 212)
( >= X13 0)
( <= ( + X13 39) Z)
( >= Y13 0)
( <= ( + Y13 24 ) 212)
( >= X14 0)
( <= ( + X14 84) Z)
( >= Y14 0)
( <= ( + Y14 75 ) 212)
( >= X15 0)
( <= ( + X15 99) Z)
( >= Y15 0)
( <= ( + Y15 40 ) 212)
( >= X16 0)
( <= ( + X16 66) Z)
( >= Y16 0)
( <= ( + Y16 64 ) 212)
( >= X17 0)
( <= ( + X17 59) Z)
( >= Y17 0)
( <= ( + Y17 8 ) 212)
) )
(minimize Z)
(check-sat)
